100
30
12
24
14
10
6
5
7
5
5
17
29
28
8
13
6
4
27
12
5
19
10
7
2
27
3
31
25
18
28
26
7
15
32
30
28
25
8
8
9
26
29
14
18
1
32
12
5
22
13
25
32
23
9
13
22
29
13
11
9
10
23
14
28
26
32
27
21
30
10
13
27
32
22
12
13
21
26
2
32
24
19
32
17
12
1
28
1
29
28
22
2
20
30
32
4
12
32
31
32
8